self-compositions/words_1/words_22_SAT.qaiger
aag 65 16 0 1 49
12
20
16
10
18
28
2
30
14
26
22
32
24
8
6
4
130
34 33 29
36 34 31
38 36 27
40 38 25
42 40 23
44 42 21
46 43 20
48 47 45
50 48 15
52 41 22
54 53 43
56 54 13
58 39 24
60 59 41
62 60 11
64 61 10
66 37 26
68 67 39
70 69 8
72 68 9
74 29 7
76 30 4
78 32 3
80 31 5
82 81 78
84 83 77
86 85 75
88 28 6
90 89 37
92 90 87
94 93 73
96 95 71
98 96 65
100 99 63
102 100 57
104 55 12
106 49 14
108 107 105
110 108 103
112 111 51
114 18 16
116 19 17
118 117 115
120 119 44
122 118 45
124 123 121
126 125 113
128 124 112
130 129 127
i0 1 x[5]
i1 2 z[1]
i2 1 x[7]
i3 1 x[4]
i4 2 z[0]
i5 2 z[5]
i6 1 x[0]
i7 2 z[6]
i8 1 x[6]
i9 2 z[4]
i10 2 z[2]
i11 2 z[7]
i12 2 z[3]
i13 1 x[3]
i14 1 x[2]
i15 1 x[1]
o0 bv[0]
c
simplified
  <
    xor
      1
      subtract
        unary minus
          1 x
        1
    reverse
      2 z
