self-compositions/words_1/words_22_SAT.qaiger.qdimacs
p cnf 65 148
a 1 2 3 4 5 6 7 8 0
e 9 10 11 12 13 14 15 16 17 18 19 20 21 22 23 24 25 26 27 28 29 30 31 32 33 34 35 36 37 38 39 40 41 42 43 44 45 46 47 48 49 50 51 52 53 54 55 56 57 58 59 60 61 62 63 64 65 0
16 14 17 0
-16 -17 0
-14 -17 0
-17 15 18 0
17 -18 0
-15 -18 0
-18 13 19 0
18 -19 0
-13 -19 0
-19 12 20 0
19 -20 0
-12 -20 0
-20 11 21 0
20 -21 0
-11 -21 0
-21 10 22 0
21 -22 0
-10 -22 0
21 -10 23 0
-21 -23 0
10 -23 0
23 22 24 0
-23 -24 0
-22 -24 0
-24 7 25 0
24 -25 0
-7 -25 0
20 -11 26 0
-20 -26 0
11 -26 0
26 21 27 0
-26 -27 0
-21 -27 0
-27 6 28 0
27 -28 0
-6 -28 0
19 -12 29 0
-19 -29 0
12 -29 0
29 20 30 0
-29 -30 0
-20 -30 0
-30 5 31 0
30 -31 0
-5 -31 0
30 -5 32 0
-30 -32 0
5 -32 0
18 -13 33 0
-18 -33 0
13 -33 0
33 19 34 0
-33 -34 0
-19 -34 0
34 -4 35 0
-34 -35 0
4 -35 0
-34 4 36 0
34 -36 0
-4 -36 0
14 3 37 0
-14 -37 0
-3 -37 0
-15 -2 38 0
15 -38 0
2 -38 0
-16 1 39 0
16 -39 0
-1 -39 0
15 2 40 0
-15 -40 0
-2 -40 0
40 -39 41 0
-40 -41 0
39 -41 0
41 38 42 0
-41 -42 0
-38 -42 0
42 37 43 0
-42 -43 0
-37 -43 0
-14 -3 44 0
14 -44 0
3 -44 0
44 18 45 0
-44 -45 0
-18 -45 0
-45 43 46 0
45 -46 0
-43 -46 0
46 36 47 0
-46 -47 0
-36 -47 0
47 35 48 0
-47 -48 0
-35 -48 0
-48 32 49 0
48 -49 0
-32 -49 0
49 31 50 0
-49 -50 0
-31 -50 0
-50 28 51 0
50 -51 0
-28 -51 0
27 -6 52 0
-27 -52 0
6 -52 0
24 -7 53 0
-24 -53 0
7 -53 0
53 52 54 0
-53 -54 0
-52 -54 0
-54 51 55 0
54 -55 0
-51 -55 0
55 25 56 0
-55 -56 0
-25 -56 0
-9 -8 57 0
9 -57 0
8 -57 0
9 8 58 0
-9 -58 0
-8 -58 0
58 57 59 0
-58 -59 0
-57 -59 0
59 -22 60 0
-59 -60 0
22 -60 0
-59 22 61 0
59 -61 0
-22 -61 0
61 60 62 0
-61 -62 0
-60 -62 0
62 56 63 0
-62 -63 0
-56 -63 0
-62 -56 64 0
62 -64 0
56 -64 0
64 63 65 0
-64 -65 0
-63 -65 0
65 0
